72
125
87	4
86	2
85	6
84	5
83	3
82	1
81	3
80	1
79	3
78	3
77	5
76	1
75	2
74	3
73	5
72	1
71	4
70	4
69	2
68	7
67	3
64	2
63	7
62	1
61	3
60	1
59	4
58	3
57	1
56	6
55	4
54	4
53	1
52	1
51	1
50	5
48	4
47	2
46	3
45	1
44	3
43	6
41	7
40	3
39	1
38	1
37	3
36	1
35	3
34	1
33	1
32	2
31	1
30	3
29	1
28	3
27	1
26	2
25	3
24	2
23	2
22	2
21	2
20	4
19	1
18	1
17	2
16	2
15	4
14	4
13	4
12	2
